(benchmark random_random83_smt
:extrafuns ((x0 BitVec[24]))
:extrafuns ((x1 BitVec[24]))
:extrafuns ((x2 BitVec[24]))
:extrafuns ((x3 BitVec[24]))
:extrafuns ((x4 BitVec[24]))
:extrafuns ((x5 BitVec[24]))
:extrafuns ((x6 BitVec[24]))
:extrafuns ((x7 BitVec[24]))
:extrafuns ((x8 BitVec[24]))
:extrafuns ((x9 BitVec[24]))
:extrafuns ((x10 BitVec[24]))
:extrafuns ((x11 BitVec[24]))
:extrafuns ((x12 BitVec[24]))
:extrafuns ((x13 BitVec[24]))
:extrafuns ((x14 BitVec[24]))
:extrafuns ((x15 BitVec[24]))
:extrafuns ((x16 BitVec[24]))
:extrafuns ((x17 BitVec[24]))
:extrafuns ((x18 BitVec[24]))
:extrafuns ((x19 BitVec[24]))


:formula (and (not (= (bvadd (bvmul bv16695619[24] x1) 
                        (bvadd (bvmul bv5121839[24] x2) 
                        (bvadd (bvmul bv15218975[24] x3) 
                        (bvadd (bvmul bv605158[24] x5) 
                        (bvadd (bvmul bv6754001[24] x6) 
                        (bvadd (bvmul bv4275972[24] x7) 
                        (bvadd (bvmul bv3176048[24] x8) 
                        (bvadd (bvmul bv2292754[24] x9) 
                        (bvadd (bvmul bv16157446[24] x11) 
                        (bvadd (bvmul bv14779859[24] x15) 
                        (bvadd (bvmul bv14622222[24] x16) 
                        (bvadd (bvmul bv4252737[24] x18) (bvmul bv11462129[24] x19)))))))))))))
	              bv4171141[24]))
         (and (not (= (bvadd (bvmul bv554172[24] x1) 
                        (bvadd (bvmul bv2385648[24] x4) 
                        (bvadd (bvmul bv6364123[24] x7) 
                        (bvadd (bvmul bv15976890[24] x8) 
                        (bvadd (bvmul bv1484681[24] x10) (bvmul bv15508222[24] x11))))))
	              bv16199650[24]))
         (and (not (= (bvadd (bvmul bv10884564[24] x1) 
                        (bvadd (bvmul bv1518600[24] x2) 
                        (bvadd (bvmul bv12150396[24] x3) 
                        (bvadd (bvmul bv10538758[24] x5) 
                        (bvadd (bvmul bv15681121[24] x7) 
                        (bvadd (bvmul bv908041[24] x10) 
                        (bvadd (bvmul bv12089918[24] x11) 
                        (bvadd (bvmul bv9801022[24] x14) 
                        (bvadd (bvmul bv370400[24] x15) (bvmul bv11749920[24] x16))))))))))
	              bv16660260[24]))
         (and (not (= (bvadd (bvmul bv16247598[24] x0) 
                        (bvadd (bvmul bv3767580[24] x1) 
                        (bvadd (bvmul bv4288073[24] x4) 
                        (bvadd (bvmul bv9972812[24] x6) 
                        (bvadd (bvmul bv11681178[24] x8) 
                        (bvadd (bvmul bv16551185[24] x11) 
                        (bvadd (bvmul bv14981942[24] x12) 
                        (bvadd (bvmul bv8005750[24] x14) 
                        (bvadd (bvmul bv11049383[24] x15) 
                        (bvadd (bvmul bv11509993[24] x17) (bvmul bv11393038[24] x19)))))))))))
	              bv51742[24]))
         (and (bvule      (bvadd (bvmul bv5383433[24] x0) 
                        (bvadd (bvmul bv10065147[24] x2) 
                        (bvadd (bvmul bv12639604[24] x5) 
                        (bvadd (bvmul bv13495887[24] x6) 
                        (bvadd (bvmul bv773144[24] x10) 
                        (bvadd (bvmul bv15755087[24] x12) 
                        (bvadd (bvmul bv2750995[24] x13) 
                        (bvadd (bvmul bv13800378[24] x15) 
                        (bvadd (bvmul bv2723575[24] x16) 
                        (bvadd (bvmul bv4443689[24] x17) (bvmul bv3148979[24] x18)))))))))))
	              bv9645022[24])
         (and (bvule      (bvadd (bvmul bv8314755[24] x0) 
                        (bvadd (bvmul bv5525677[24] x3) 
                        (bvadd (bvmul bv7137229[24] x4) 
                        (bvadd (bvmul bv10612265[24] x5) 
                        (bvadd (bvmul bv3766779[24] x6) 
                        (bvadd (bvmul bv3797000[24] x7) 
                        (bvadd (bvmul bv3517796[24] x10) 
                        (bvadd (bvmul bv15397222[24] x11) 
                        (bvadd (bvmul bv2952374[24] x12) 
                        (bvadd (bvmul bv7064723[24] x13) 
                        (bvadd (bvmul bv3736449[24] x16) 
                        (bvadd (bvmul bv13381472[24] x18) (bvmul bv7541385[24] x19)))))))))))))
	              bv2045570[24])
         (and (bvule      (bvadd (bvmul bv9176240[24] x3) 
                        (bvadd (bvmul bv3982070[24] x5) 
                        (bvadd (bvmul bv6384516[24] x6) 
                        (bvadd (bvmul bv7833485[24] x8) 
                        (bvadd (bvmul bv5061070[24] x13) 
                        (bvadd (bvmul bv2213098[24] x14) 
                        (bvadd (bvmul bv2087587[24] x15) 
                        (bvadd (bvmul bv14473469[24] x16) 
                        (bvadd (bvmul bv12948141[24] x17) (bvmul bv8493397[24] x18))))))))))
	              bv13123297[24])
         (and (bvule      (bvadd (bvmul bv5751323[24] x0) 
                        (bvadd (bvmul bv10294218[24] x3) 
                        (bvadd (bvmul bv2132418[24] x4) 
                        (bvadd (bvmul bv1567045[24] x7) 
                        (bvadd (bvmul bv13559571[24] x8) 
                        (bvadd (bvmul bv15827661[24] x10) 
                        (bvadd (bvmul bv3874304[24] x11) 
                        (bvadd (bvmul bv352692[24] x12) 
                        (bvadd (bvmul bv15826509[24] x13) 
                        (bvadd (bvmul bv12307580[24] x14) 
                        (bvadd (bvmul bv10245131[24] x15) 
                        (bvadd (bvmul bv2954174[24] x18) (bvmul bv2931551[24] x19)))))))))))))
	              bv6871504[24])
         (and (bvule      (bvadd (bvmul bv3214318[24] x3) 
                        (bvadd (bvmul bv5616223[24] x6) 
                        (bvadd (bvmul bv8607441[24] x8) 
                        (bvadd (bvmul bv6747035[24] x10) 
                        (bvadd (bvmul bv13431798[24] x17) 
                        (bvadd (bvmul bv4483533[24] x18) (bvmul bv11822076[24] x19)))))))
	              bv7437708[24])
         (and (bvule      (bvadd (bvmul bv14309213[24] x1) 
                        (bvadd (bvmul bv14697721[24] x3) 
                        (bvadd (bvmul bv15398438[24] x7) 
                        (bvadd (bvmul bv8529386[24] x9) 
                        (bvadd (bvmul bv13662044[24] x10) 
                        (bvadd (bvmul bv3740872[24] x15) 
                        (bvadd (bvmul bv882399[24] x16) (bvmul bv6099847[24] x19))))))))
	              bv5088246[24])
         (and (bvule      (bvadd (bvmul bv13537556[24] x0) 
                        (bvadd (bvmul bv8545523[24] x1) 
                        (bvadd (bvmul bv1329042[24] x2) 
                        (bvadd (bvmul bv7412106[24] x4) 
                        (bvadd (bvmul bv10959744[24] x5) 
                        (bvadd (bvmul bv1768437[24] x7) 
                        (bvadd (bvmul bv249863[24] x8) 
                        (bvadd (bvmul bv960644[24] x10) 
                        (bvadd (bvmul bv7591742[24] x12) (bvmul bv3462858[24] x18))))))))))
	              bv15758775[24])
         (and (bvule      (bvadd (bvmul bv4583015[24] x0) 
                        (bvadd (bvmul bv5800277[24] x1) 
                        (bvadd (bvmul bv11804417[24] x2) 
                        (bvadd (bvmul bv7865414[24] x3) 
                        (bvadd (bvmul bv3816382[24] x8) 
                        (bvadd (bvmul bv5000955[24] x10) 
                        (bvadd (bvmul bv16211567[24] x11) 
                        (bvadd (bvmul bv10473868[24] x12) 
                        (bvadd (bvmul bv10580380[24] x14) 
                        (bvadd (bvmul bv4120733[24] x15) (bvmul bv3334645[24] x16)))))))))))
	              bv4838345[24])
         (and (bvule      (bvadd (bvmul bv10638623[24] x1) 
                        (bvadd (bvmul bv10258094[24] x5) 
                        (bvadd (bvmul bv16720395[24] x6) 
                        (bvadd (bvmul bv11992734[24] x7) 
                        (bvadd (bvmul bv8760517[24] x10) 
                        (bvadd (bvmul bv9900793[24] x11) 
                        (bvadd (bvmul bv7857642[24] x17) 
                        (bvadd (bvmul bv12925650[24] x18) (bvmul bv600913[24] x19)))))))))
	              bv15241857[24])
         (and (bvule      (bvadd (bvmul bv11256224[24] x1) 
                        (bvadd (bvmul bv15339632[24] x2) 
                        (bvadd (bvmul bv12555888[24] x5) 
                        (bvadd (bvmul bv10312925[24] x7) 
                        (bvadd (bvmul bv160397[24] x8) 
                        (bvadd (bvmul bv7302932[24] x9) 
                        (bvadd (bvmul bv7880352[24] x10) 
                        (bvadd (bvmul bv15803442[24] x12) 
                        (bvadd (bvmul bv8070252[24] x16) 
                        (bvadd (bvmul bv6315625[24] x17) (bvmul bv4780268[24] x19)))))))))))
	              bv10236638[24])
         (and (bvule      (bvadd (bvmul bv7600413[24] x1) 
                        (bvadd (bvmul bv2158309[24] x4) 
                        (bvadd (bvmul bv13850681[24] x5) 
                        (bvadd (bvmul bv7648670[24] x6) 
                        (bvadd (bvmul bv15496756[24] x7) 
                        (bvadd (bvmul bv1639401[24] x11) 
                        (bvadd (bvmul bv12382777[24] x16) (bvmul bv6966379[24] x17))))))))
	              bv5572023[24])
         (and (bvule      (bvadd (bvmul bv12710262[24] x1) 
                        (bvadd (bvmul bv3792014[24] x6) 
                        (bvadd (bvmul bv2351158[24] x8) 
                        (bvadd (bvmul bv6629046[24] x9) 
                        (bvadd (bvmul bv7841936[24] x11) 
                        (bvadd (bvmul bv6210532[24] x12) 
                        (bvadd (bvmul bv12827312[24] x13) 
                        (bvadd (bvmul bv11696926[24] x14) 
                        (bvadd (bvmul bv13570515[24] x18) (bvmul bv15133960[24] x19))))))))))
	              bv2365323[24])
         (and (bvule      (bvadd (bvmul bv10949461[24] x0) 
                        (bvadd (bvmul bv5108653[24] x1) 
                        (bvadd (bvmul bv16709290[24] x2) 
                        (bvadd (bvmul bv13233783[24] x3) 
                        (bvadd (bvmul bv6075248[24] x6) 
                        (bvadd (bvmul bv15804705[24] x7) 
                        (bvadd (bvmul bv6869427[24] x9) 
                        (bvadd (bvmul bv16443140[24] x10) 
                        (bvadd (bvmul bv11907202[24] x11) 
                        (bvadd (bvmul bv11270477[24] x12) 
                        (bvadd (bvmul bv3912546[24] x13) 
                        (bvadd (bvmul bv6643480[24] x17) (bvmul bv815727[24] x19)))))))))))))
	              bv1369541[24])
         (and (bvule      (bvadd (bvmul bv15181102[24] x0) 
                        (bvadd (bvmul bv11637671[24] x2) 
                        (bvadd (bvmul bv4036114[24] x4) 
                        (bvadd (bvmul bv8255838[24] x5) 
                        (bvadd (bvmul bv549578[24] x9) 
                        (bvadd (bvmul bv12456780[24] x11) 
                        (bvadd (bvmul bv3999845[24] x12) (bvmul bv3303960[24] x16))))))))
	              bv10205158[24])
         (and (bvule      (bvadd (bvmul bv5338247[24] x2) 
                        (bvadd (bvmul bv3051974[24] x3) 
                        (bvadd (bvmul bv14880013[24] x5) 
                        (bvadd (bvmul bv6358637[24] x7) 
                        (bvadd (bvmul bv8069868[24] x9) 
                        (bvadd (bvmul bv9447025[24] x11) 
                        (bvadd (bvmul bv6094568[24] x12) 
                        (bvadd (bvmul bv14060200[24] x14) 
                        (bvadd (bvmul bv2979048[24] x15) (bvmul bv14034668[24] x16))))))))))
	              bv13222016[24])
         (and (bvule      (bvadd (bvmul bv11377255[24] x0) 
                        (bvadd (bvmul bv3646328[24] x2) 
                        (bvadd (bvmul bv941108[24] x4) 
                        (bvadd (bvmul bv12662156[24] x7) 
                        (bvadd (bvmul bv2425053[24] x8) 
                        (bvadd (bvmul bv12840056[24] x10) 
                        (bvadd (bvmul bv3741952[24] x11) 
                        (bvadd (bvmul bv15487923[24] x15) 
                        (bvadd (bvmul bv12745377[24] x17) (bvmul bv16377961[24] x19))))))))))
	              bv3366114[24])
         (and (bvule      (bvadd (bvmul bv10978001[24] x0) 
                        (bvadd (bvmul bv7258593[24] x1) 
                        (bvadd (bvmul bv16715581[24] x2) 
                        (bvadd (bvmul bv6241886[24] x4) 
                        (bvadd (bvmul bv8125066[24] x5) 
                        (bvadd (bvmul bv6081637[24] x8) 
                        (bvadd (bvmul bv6612961[24] x9) 
                        (bvadd (bvmul bv8770371[24] x11) (bvmul bv3484600[24] x19)))))))))
	              bv1743092[24])
         (and (bvule      (bvadd (bvmul bv12371031[24] x0) 
                        (bvadd (bvmul bv6340045[24] x1) 
                        (bvadd (bvmul bv6278412[24] x3) 
                        (bvadd (bvmul bv9356432[24] x4) 
                        (bvadd (bvmul bv539797[24] x5) 
                        (bvadd (bvmul bv2501830[24] x7) 
                        (bvadd (bvmul bv3951548[24] x8) 
                        (bvadd (bvmul bv1090150[24] x9) 
                        (bvadd (bvmul bv9860521[24] x11) 
                        (bvadd (bvmul bv14917845[24] x12) (bvmul bv9187971[24] x18)))))))))))
	              bv11517075[24])
         (and (bvule      (bvadd (bvmul bv7358319[24] x4) 
                        (bvadd (bvmul bv6494992[24] x5) 
                        (bvadd (bvmul bv15332800[24] x15) 
                        (bvadd (bvmul bv8924737[24] x16) 
                        (bvadd (bvmul bv13921210[24] x17) (bvmul bv15929034[24] x18))))))
	              bv1326367[24])
         (and (bvule      (bvadd (bvmul bv12035338[24] x0) 
                        (bvadd (bvmul bv7583571[24] x1) 
                        (bvadd (bvmul bv8663477[24] x3) 
                        (bvadd (bvmul bv16021797[24] x5) 
                        (bvadd (bvmul bv2345985[24] x7) 
                        (bvadd (bvmul bv7809699[24] x11) 
                        (bvadd (bvmul bv10576314[24] x13) 
                        (bvadd (bvmul bv6426236[24] x15) (bvmul bv5949374[24] x16)))))))))
	              bv6417599[24])
         (and (bvule      (bvadd (bvmul bv1167689[24] x0) 
                        (bvadd (bvmul bv1715635[24] x3) 
                        (bvadd (bvmul bv637523[24] x4) 
                        (bvadd (bvmul bv5429922[24] x5) 
                        (bvadd (bvmul bv16602713[24] x6) 
                        (bvadd (bvmul bv5545390[24] x10) 
                        (bvadd (bvmul bv10909574[24] x13) 
                        (bvadd (bvmul bv51957[24] x14) (bvmul bv9334892[24] x17)))))))))
	              bv14436087[24])
         (and (bvule      (bvadd (bvmul bv11837723[24] x0) 
                        (bvadd (bvmul bv13418489[24] x1) 
                        (bvadd (bvmul bv7577822[24] x2) 
                        (bvadd (bvmul bv8964800[24] x3) 
                        (bvadd (bvmul bv8097451[24] x6) 
                        (bvadd (bvmul bv14689273[24] x9) 
                        (bvadd (bvmul bv15870933[24] x10) 
                        (bvadd (bvmul bv14008100[24] x11) 
                        (bvadd (bvmul bv9033632[24] x12) 
                        (bvadd (bvmul bv12931228[24] x13) 
                        (bvadd (bvmul bv11091732[24] x14) 
                        (bvadd (bvmul bv11051554[24] x17) (bvmul bv6112063[24] x19)))))))))))))
	              bv1462261[24])
         (and (bvule      (bvadd (bvmul bv6380635[24] x2) 
                        (bvadd (bvmul bv478214[24] x3) 
                        (bvadd (bvmul bv8668214[24] x4) 
                        (bvadd (bvmul bv4922236[24] x5) 
                        (bvadd (bvmul bv2123993[24] x6) 
                        (bvadd (bvmul bv9991985[24] x12) 
                        (bvadd (bvmul bv10250996[24] x13) 
                        (bvadd (bvmul bv6872774[24] x17) (bvmul bv13246449[24] x18)))))))))
	              bv2034512[24])
         (and (bvule      (bvadd (bvmul bv9501735[24] x0) 
                        (bvadd (bvmul bv15171126[24] x3) 
                        (bvadd (bvmul bv7062126[24] x5) 
                        (bvadd (bvmul bv1377471[24] x6) 
                        (bvadd (bvmul bv16686932[24] x13) 
                        (bvadd (bvmul bv7008535[24] x14) 
                        (bvadd (bvmul bv4018810[24] x15) 
                        (bvadd (bvmul bv11808824[24] x16) 
                        (bvadd (bvmul bv4337184[24] x17) (bvmul bv5815195[24] x19))))))))))
	              bv9765785[24])
         (and (bvule      (bvadd (bvmul bv15316930[24] x0) 
                        (bvadd (bvmul bv16001869[24] x1) 
                        (bvadd (bvmul bv12280116[24] x2) 
                        (bvadd (bvmul bv2565027[24] x4) 
                        (bvadd (bvmul bv3499541[24] x6) 
                        (bvadd (bvmul bv10784944[24] x8) 
                        (bvadd (bvmul bv4859465[24] x9) 
                        (bvadd (bvmul bv3244355[24] x11) 
                        (bvadd (bvmul bv3178100[24] x12) 
                        (bvadd (bvmul bv14986924[24] x14) 
                        (bvadd (bvmul bv5940982[24] x16) 
                        (bvadd (bvmul bv2723017[24] x17) (bvmul bv8467376[24] x18)))))))))))))
	              bv12815757[24])
         (and (bvule      (bvadd (bvmul bv8318659[24] x1) 
                        (bvadd (bvmul bv9784928[24] x2) 
                        (bvadd (bvmul bv3511959[24] x3) 
                        (bvadd (bvmul bv10806892[24] x5) 
                        (bvadd (bvmul bv3914560[24] x7) 
                        (bvadd (bvmul bv13265864[24] x8) 
                        (bvadd (bvmul bv13055676[24] x9) 
                        (bvadd (bvmul bv8657136[24] x14) 
                        (bvadd (bvmul bv4260739[24] x15) (bvmul bv1836302[24] x19))))))))))
	              bv16006050[24])
         (and (bvule      (bvadd (bvmul bv1653966[24] x4) 
                        (bvadd (bvmul bv15791346[24] x5) 
                        (bvadd (bvmul bv2607316[24] x6) 
                        (bvadd (bvmul bv4139585[24] x10) 
                        (bvadd (bvmul bv12511676[24] x12) 
                        (bvadd (bvmul bv13454405[24] x14) 
                        (bvadd (bvmul bv6144367[24] x17) 
                        (bvadd (bvmul bv11878526[24] x18) (bvmul bv13355925[24] x19)))))))))
	              bv13714828[24])
         (and (bvule      (bvadd (bvmul bv4055126[24] x0) 
                        (bvadd (bvmul bv16110990[24] x1) 
                        (bvadd (bvmul bv8210359[24] x2) 
                        (bvadd (bvmul bv7898658[24] x8) 
                        (bvadd (bvmul bv8190569[24] x9) 
                        (bvadd (bvmul bv13504249[24] x10) 
                        (bvadd (bvmul bv4449896[24] x14) 
                        (bvadd (bvmul bv8318900[24] x17) (bvmul bv876345[24] x19)))))))))
	              bv13916872[24])
         (and (bvule      (bvadd (bvmul bv1194783[24] x1) 
                        (bvadd (bvmul bv10315591[24] x3) 
                        (bvadd (bvmul bv9761359[24] x4) 
                        (bvadd (bvmul bv4132936[24] x5) 
                        (bvadd (bvmul bv14765371[24] x6) 
                        (bvadd (bvmul bv1130524[24] x7) 
                        (bvadd (bvmul bv4765616[24] x10) 
                        (bvadd (bvmul bv7231055[24] x15) 
                        (bvadd (bvmul bv7591794[24] x16) 
                        (bvadd (bvmul bv10822760[24] x17) (bvmul bv7962418[24] x19)))))))))))
	              bv9464522[24])
         (and (bvule      (bvadd (bvmul bv9157201[24] x0) 
                        (bvadd (bvmul bv1085330[24] x1) 
                        (bvadd (bvmul bv10846690[24] x3) 
                        (bvadd (bvmul bv15981204[24] x4) 
                        (bvadd (bvmul bv14527402[24] x6) 
                        (bvadd (bvmul bv5764893[24] x12) 
                        (bvadd (bvmul bv2410823[24] x13) 
                        (bvadd (bvmul bv3457903[24] x14) (bvmul bv5193627[24] x15)))))))))
	              bv14680602[24])
         (and (bvule      (bvadd (bvmul bv10968658[24] x0) 
                        (bvadd (bvmul bv12053988[24] x2) 
                        (bvadd (bvmul bv9562556[24] x3) 
                        (bvadd (bvmul bv10202020[24] x6) 
                        (bvadd (bvmul bv5236618[24] x9) 
                        (bvadd (bvmul bv234521[24] x10) 
                        (bvadd (bvmul bv6919318[24] x11) 
                        (bvadd (bvmul bv9330142[24] x13) 
                        (bvadd (bvmul bv5225565[24] x15) 
                        (bvadd (bvmul bv15099556[24] x16) 
                        (bvadd (bvmul bv15659247[24] x17) (bvmul bv15210926[24] x19))))))))))))
	              bv11170730[24])
         (and (bvule      (bvadd (bvmul bv6447504[24] x1) 
                        (bvadd (bvmul bv5710555[24] x2) 
                        (bvadd (bvmul bv20814[24] x3) 
                        (bvadd (bvmul bv5995772[24] x4) 
                        (bvadd (bvmul bv4864180[24] x9) 
                        (bvadd (bvmul bv13130081[24] x12) 
                        (bvadd (bvmul bv14464843[24] x13) 
                        (bvadd (bvmul bv3140903[24] x14) (bvmul bv5364536[24] x17)))))))))
	              bv3798248[24])
         (and (bvule      (bvadd (bvmul bv8587214[24] x2) 
                        (bvadd (bvmul bv3490871[24] x8) 
                        (bvadd (bvmul bv10802999[24] x10) 
                        (bvadd (bvmul bv11378812[24] x13) 
                        (bvadd (bvmul bv10874939[24] x14) 
                        (bvadd (bvmul bv11644588[24] x15) 
                        (bvadd (bvmul bv1349877[24] x17) (bvmul bv10742492[24] x18))))))))
	              bv1832604[24])
         (and (bvule      (bvadd (bvmul bv3972314[24] x1) 
                        (bvadd (bvmul bv10458910[24] x2) 
                        (bvadd (bvmul bv11799483[24] x3) 
                        (bvadd (bvmul bv163280[24] x4) 
                        (bvadd (bvmul bv2695187[24] x5) 
                        (bvadd (bvmul bv16705716[24] x6) 
                        (bvadd (bvmul bv8769204[24] x7) 
                        (bvadd (bvmul bv16284896[24] x8) 
                        (bvadd (bvmul bv8476359[24] x9) 
                        (bvadd (bvmul bv9042314[24] x10) 
                        (bvadd (bvmul bv5259565[24] x15) 
                        (bvadd (bvmul bv9803761[24] x16) 
                        (bvadd (bvmul bv1812602[24] x17) (bvmul bv5709427[24] x18))))))))))))))
	              bv5551334[24])
         (and (bvule      (bvadd (bvmul bv1567230[24] x0) 
                        (bvadd (bvmul bv1730510[24] x2) 
                        (bvadd (bvmul bv1424807[24] x3) 
                        (bvadd (bvmul bv13716949[24] x4) 
                        (bvadd (bvmul bv4262520[24] x5) 
                        (bvadd (bvmul bv16125090[24] x7) 
                        (bvadd (bvmul bv5310264[24] x8) 
                        (bvadd (bvmul bv1944463[24] x9) 
                        (bvadd (bvmul bv12299877[24] x10) 
                        (bvadd (bvmul bv9630653[24] x16) 
                        (bvadd (bvmul bv1688419[24] x17) (bvmul bv1499242[24] x18))))))))))))
	              bv205585[24])
              (bvule      (bvadd (bvmul bv1936096[24] x1) 
                        (bvadd (bvmul bv1233970[24] x2) 
                        (bvadd (bvmul bv12801026[24] x3) 
                        (bvadd (bvmul bv1691932[24] x4) 
                        (bvadd (bvmul bv9429997[24] x9) 
                        (bvadd (bvmul bv12372752[24] x13) 
                        (bvadd (bvmul bv1713880[24] x16) 
                        (bvadd (bvmul bv9122170[24] x17) (bvmul bv10621412[24] x19)))))))))
	              bv4481842[24])
	 )))))))))))))))))))))))))))))))))))))))

)
